; RETURNDATASIZE DUP1 => RETURNDATASIZE RETURNDATASIZE
(set-option :produce-proofs true)
; 
(set-info :status unknown)
(declare-fun storage_t ((_ BitVec 256) Int (_ BitVec 256)) (_ BitVec 256))
(declare-fun storage_s ((_ BitVec 256) Int (_ BitVec 256)) (_ BitVec 256))
(declare-fun exc_halt_t (Int) Bool)
(declare-fun exc_halt_s (Int) Bool)
(declare-fun stack_t ((_ BitVec 256) Int (_ BitVec 6)) (_ BitVec 256))
(declare-fun stack_s ((_ BitVec 256) Int (_ BitVec 6)) (_ BitVec 256))
(declare-fun sc_t (Int) (_ BitVec 6))
(declare-fun sc_s (Int) (_ BitVec 6))
(declare-fun used_gas_t ((_ BitVec 256) Int) Int)
(declare-fun used_gas_s ((_ BitVec 256) Int) Int)
(assert
 (exists ((x_RETURNDATASIZE (_ BitVec 256)) )(let (($x3384 (forall ((w (_ BitVec 256)) )(let ((?x4391 (storage_t x_RETURNDATASIZE 2 w)))
 (let ((?x3456 (storage_s x_RETURNDATASIZE 2 w)))
 (= ?x3456 ?x4391))))
 ))
 (let (($x9580 (exc_halt_t 2)))
 (let (($x7873 (exc_halt_s 2)))
 (let (($x11676 (= $x7873 $x9580)))
 (let (($x7472 (forall ((n (_ BitVec 6)) )(let ((?x6432 (stack_t x_RETURNDATASIZE 2 n)))
 (let ((?x19 (stack_s x_RETURNDATASIZE 2 n)))
 (let (($x5213 (= ?x19 ?x6432)))
 (let ((?x2992 (sc_t 2)))
 (let (($x1399 (bvsle ?x2992 n)))
 (or $x1399 $x5213)))))))
 ))
 (let ((?x2992 (sc_t 2)))
 (let ((?x7378 (sc_s 2)))
 (let (($x9992 (= ?x7378 ?x2992)))
 (let ((?x2055 (used_gas_t x_RETURNDATASIZE 0)))
 (let ((?x10161 (used_gas_s x_RETURNDATASIZE 0)))
 (let (($x5111 (= ?x10161 ?x2055)))
 (let (($x5154 (forall ((w (_ BitVec 256)) )(let ((?x328 (storage_t x_RETURNDATASIZE 0 w)))
 (let ((?x6029 (storage_s x_RETURNDATASIZE 0 w)))
 (= ?x6029 ?x328))))
 ))
 (let (($x56 (exc_halt_t 0)))
 (let (($x57 (exc_halt_s 0)))
 (let (($x58 (= $x57 $x56)))
 (let (($x6361 (forall ((n (_ BitVec 6)) )(let ((?x4961 (stack_t x_RETURNDATASIZE 0 n)))
 (let ((?x9160 (stack_s x_RETURNDATASIZE 0 n)))
 (let (($x6461 (= ?x9160 ?x4961)))
 (let ((?x63 (sc_t 0)))
 (let (($x5904 (bvsle ?x63 n)))
 (or $x5904 $x6461)))))))
 ))
 (let ((?x63 (sc_t 0)))
 (let ((?x72 (sc_s 0)))
 (let (($x73 (= ?x72 ?x63)))
 (let (($x9534 (not (= ((_ extract 6 6) (bvadd (_ bv1 7) (concat (_ bv0 1) (sc_t 1)))) (_ bv0 1)))))
 (let (($x408 (exc_halt_t 1)))
 (let (($x216 (= $x9580 (or $x408 $x9534))))
 (let (($x6785 (forall ((w (_ BitVec 256)) )(let ((?x45 (storage_t x_RETURNDATASIZE 1 w)))
 (let ((?x4391 (storage_t x_RETURNDATASIZE 2 w)))
 (= ?x4391 ?x45))))
 ))
 (let (($x974 (forall ((n (_ BitVec 6)) )(let ((?x3379 (sc_t 1)))
 (let (($x10655 (bvsle ?x3379 n)))
 (or $x10655 (= (stack_t x_RETURNDATASIZE 2 n) (stack_t x_RETURNDATASIZE 1 n))))))
 ))
 (let (($x10503 (= ?x2992 (bvadd (_ bv1 6) (sc_t 1)))))
 (let (($x11464 (= $x408 (or $x56 (not (= ((_ extract 6 6) (bvadd (_ bv1 7) (concat (_ bv0 1) ?x63))) (_ bv0 1)))))))
 (let (($x893 (forall ((w (_ BitVec 256)) )(let ((?x328 (storage_t x_RETURNDATASIZE 0 w)))
 (let ((?x45 (storage_t x_RETURNDATASIZE 1 w)))
 (= ?x45 ?x328))))
 ))
 (let (($x11332 (forall ((n (_ BitVec 6)) )(let ((?x63 (sc_t 0)))
 (let (($x5904 (bvsle ?x63 n)))
 (or (= (stack_t x_RETURNDATASIZE 1 n) (stack_t x_RETURNDATASIZE 0 n)) $x5904))))
 ))
 (let ((?x3379 (sc_t 1)))
 (let (($x8894 (= ?x3379 (bvadd (_ bv1 6) ?x63))))
 (let (($x4172 (not (= ((_ extract 6 6) (bvadd (_ bv1 7) (concat (_ bv0 1) (sc_s 1)))) (_ bv0 1)))))
 (let (($x2589 (exc_halt_s 1)))
 (let (($x6006 (= $x7873 (or $x2589 $x4172 (not (bvsle (_ bv0 6) (bvadd (_ bv63 6) (sc_s 1))))))))
 (let (($x7017 (forall ((w (_ BitVec 256)) )(let ((?x3604 (storage_s x_RETURNDATASIZE 1 w)))
 (let ((?x3456 (storage_s x_RETURNDATASIZE 2 w)))
 (= ?x3456 ?x3604))))
 ))
 (let (($x3930 (forall ((n (_ BitVec 6)) )(let ((?x154 (sc_s 1)))
 (let ((?x4689 (bvadd (_ bv63 6) ?x154)))
 (let (($x6439 (bvsle ?x4689 n)))
 (or $x6439 (= (stack_s x_RETURNDATASIZE 2 n) (stack_s x_RETURNDATASIZE 1 n)))))))
 ))
 (let (($x10133 (= ?x7378 (bvadd (_ bv1 6) (sc_s 1)))))
 (let ((?x154 (sc_s 1)))
 (let ((?x4689 (bvadd (_ bv63 6) ?x154)))
 (let ((?x9523 (stack_s x_RETURNDATASIZE 1 ?x4689)))
 (let (($x10668 (= $x2589 (or $x57 (not (= ((_ extract 6 6) (bvadd (_ bv1 7) (concat (_ bv0 1) ?x72))) (_ bv0 1)))))))
 (let (($x2095 (forall ((w (_ BitVec 256)) )(let ((?x6029 (storage_s x_RETURNDATASIZE 0 w)))
 (let ((?x3604 (storage_s x_RETURNDATASIZE 1 w)))
 (= ?x3604 ?x6029))))
 ))
 (let (($x10207 (forall ((n (_ BitVec 6)) )(let ((?x72 (sc_s 0)))
 (let (($x9529 (bvsle ?x72 n)))
 (or (= (stack_s x_RETURNDATASIZE 1 n) (stack_s x_RETURNDATASIZE 0 n)) $x9529))))
 ))
 (let (($x5498 (= ?x154 (bvadd (_ bv1 6) ?x72))))
 (let (($x6099 (forall ((w (_ BitVec 256)) )(let ((?x6029 (storage_s x_RETURNDATASIZE 0 w)))
 (= ?x6029 (_ bv0 256))))
 ))
 (let (($x6807 (= ?x10161 0)))
 (let (($x11010 (not $x57)))
 (let (($x1972 (= ?x72 (_ bv0 6))))
 (and $x1972 $x11010 $x6807 $x6099 (= (stack_s x_RETURNDATASIZE 1 ?x72) x_RETURNDATASIZE) (= (used_gas_s x_RETURNDATASIZE 1) (+ 2 ?x10161)) $x5498 $x10207 $x2095 $x10668 (= (stack_s x_RETURNDATASIZE 2 (bvadd (_ bv63 6) ?x7378)) ?x9523) (= (stack_s x_RETURNDATASIZE 2 ?x4689) ?x9523) (= (used_gas_s x_RETURNDATASIZE 2) (+ 3 (used_gas_s x_RETURNDATASIZE 1))) $x10133 $x3930 $x7017 $x6006 (= (stack_t x_RETURNDATASIZE 1 ?x63) x_RETURNDATASIZE) (= (used_gas_t x_RETURNDATASIZE 1) (+ 2 ?x2055)) $x8894 $x11332 $x893 $x11464 (= (stack_t x_RETURNDATASIZE 2 ?x3379) x_RETURNDATASIZE) (= (used_gas_t x_RETURNDATASIZE 2) (+ 2 (used_gas_t x_RETURNDATASIZE 1))) $x10503 $x974 $x6785 $x216 $x73 $x6361 $x58 $x5154 $x5111 (not (and $x9992 $x7472 $x11676 $x3384)))))))))))))))))))))))))))))))))))))))))))))))))))
 )
(check-sat)
(get-proof)
